<number of tasks>
50

<cycle time>
1000

<order strength>
0.604


<task times>
1 304
2 502
3 527
4 521
5 472
6 546
7 656
8 639
9 404
10 763
11 582
12 465
13 526
14 717
15 414
16 877
17 595
18 527
19 578
20 489
21 522
22 610
23 338
24 353
25 629
26 363
27 735
28 597
29 448
30 530
31 528
32 468
33 288
34 680
35 362
36 296
37 406
38 577
39 380
40 570
41 369
42 711
43 508
44 596
45 425
46 292
47 343
48 472
49 616
50 480

<precedence relations>
1,9
2,6
2,7
3,7
3,8
3,10
4,7
4,9
4,10
5,19
6,11
6,15
6,27
7,11
7,12
7,15
8,11
8,14
8,22
9,11
9,12
10,11
10,12
10,13
10,14
10,15
11,16
11,17
12,17
12,19
13,16
13,18
14,20
14,23
14,36
15,30
15,38
16,21
16,37
17,25
17,32
18,22
18,30
18,34
19,21
19,23
19,24
21,26
21,29
21,30
21,31
22,26
22,33
22,36
23,41
23,44
23,46
24,27
24,28
24,32
25,49
26,40
26,47
27,33
27,34
28,34
28,35
29,33
29,39
29,44
30,41
30,48
31,34
32,39
33,45
33,49
34,36
34,38
35,36
35,37
36,39
36,40
37,39
37,41
37,42
37,44
38,39
38,43
39,46
39,47
40,44
40,48
41,45
41,47
42,46
43,49
43,50
46,48
46,50
47,49
47,50

<end>
